ACTORES = { Actor1 , Actor2 , Actor3 , Actor4 , Actor5 , Actor6 , Actor7 , Actor8 };

Escenas =
[| 1 , 1 , 1 , 1 , 0 , 1 , 0 , 1 , 10
| 1 , 1 , 1 , 0 , 0 , 0 , 1 , 1 , 4
| 0 , 1 , 1 , 0 , 1 , 0 , 1 , 1 , 5
| 0 , 0 , 0 , 0 , 0 , 0 , 0 , 0 , 5
| 0 , 1 , 0 , 0 , 0 , 0 , 1 , 1 , 5
| 0 , 0 , 0 , 0 , 0 , 0 , 0 , 0 , 40
| 0 , 0 , 0 , 0 , 1 , 0 , 1 , 1 , 4
| 0 , 0 , 0 , 0 , 0 , 1 , 1 , 1 , 20|];

Duracion =
[ 2 , 1 , 1 , 1 , 1 , 3 , 1 , 1 ];

Maximo_tiempo_actores = [0 , 0 , 0 , 0 , 0 , 0 , 0 , 0];

Actores_separados = [| 1 , 2 | 3 , 5 | 4, 7 | 8, 1 |];

c_weight = 100;

t_weight = 10;